(set-logic ALL)
(set-option :produce-models true)
(declare-sort BoundSet 0)
(declare-sort UnboundSet 0)
(set-option :finite-model-find true)
(declare-fun HadTerribleExperience (BoundSet BoundSet) Bool)
(declare-fun IsWith (BoundSet BoundSet) Bool)
(declare-fun IsMean (BoundSet) Bool)
(declare-fun IsBoy (BoundSet) Bool)
(assert (not (=> (and (exists ((a BoundSet)) (exists ((b BoundSet)) (exists ((c BoundSet)) (and (HadTerribleExperience a b) (IsWith c b))))) (and (forall ((g BoundSet)) (forall ((e BoundSet)) (forall ((f BoundSet)) (=> (HadTerribleExperience e f) (IsMean g))))) (and (forall ((i BoundSet)) (forall ((h BoundSet)) (forall ((j BoundSet)) (=> (IsWith h i) (IsBoy j))))) (forall ((k BoundSet)) (forall ((m BoundSet)) (forall ((l BoundSet)) (=> (IsBoy k) (IsWith l m)))))))) (exists ((d BoundSet)) (and (IsBoy d) (IsMean d))))))
(check-sat)
(get-model)